23
2 7 24 
3 49 44 50 
3 29 10 11 
2 18 55 
3 41 14 16 
3 51 36 38 
3 5 9 45 
2 58 22 
3 20 13 17 
2 54 25 
3 19 33 15 
3 60 42 1 
3 34 30 57 
3 35 23 48 
2 26 31 
2 4 39 
2 2 40 
3 56 28 27 
3 32 6 37 
3 8 59 3 
2 43 21 
2 46 47 
3 53 52 12 
